************************************************************************
file with basedata            : md331_.bas
initial value random generator: 1672855587
************************************************************************
projects                      :  1
jobs (incl. supersource/sink ):  22
horizon                       :  168
RESOURCES
  - renewable                 :  2   R
  - nonrenewable              :  2   N
  - doubly constrained        :  0   D
************************************************************************
PROJECT INFORMATION:
pronr.  #jobs rel.date duedate tardcost  MPM-Time
    1     20      0       26       16       26
************************************************************************
PRECEDENCE RELATIONS:
jobnr.    #modes  #successors   successors
   1        1          3           2   3   4
   2        3          3           6  10  11
   3        3          2           7  14
   4        3          3           5   7  18
   5        3          3           8  10  12
   6        3          3           7  13  14
   7        3          2           9  19
   8        3          3           9  11  13
   9        3          3          15  16  17
  10        3          1          16
  11        3          3          14  16  21
  12        3          1          19
  13        3          2          17  19
  14        3          1          15
  15        3          1          20
  16        3          1          20
  17        3          1          21
  18        3          1          21
  19        3          1          22
  20        3          1          22
  21        3          1          22
  22        1          0        
************************************************************************
REQUESTS/DURATIONS:
jobnr. mode duration  R 1  R 2  N 1  N 2
------------------------------------------------------------------------
  1      1     0       0    0    0    0
  2      1     2       0    9    8    0
         2     5       4    0    6    0
         3     8       0    7    6    0
  3      1     3       0    6    8    0
         2     9       5    0    8    0
         3    10       0    5    8    0
  4      1     9       7    0    8    0
         2     9       8    0    6    0
         3     9       0    7    0    6
  5      1     5       0    5    7    0
         2     9       0    5    6    0
         3     9       0    3    0    4
  6      1     4       0    8    0    8
         2     6       0    8    0    5
         3     6       1    0    0    4
  7      1     3       9    0    0    9
         2     5       9    0   10    0
         3     6       0   10    0    3
  8      1     1       0    6    9    0
         2     8       0    3    8    0
         3    10       0    1    8    0
  9      1     1       0   10    5    0
         2     5       0   10    4    0
         3     9       0    9    4    0
 10      1     5       0    9    0    4
         2     9      10    0    4    0
         3    10       0    6    0    3
 11      1     4       0    5    5    0
         2     6       4    0    0   10
         3     9       3    0    0    6
 12      1     2       3    0    8    0
         2     6       2    0    8    0
         3     9       0    5    0    6
 13      1     2       9    0    2    0
         2     8       6    0    1    0
         3     9       0    2    0    9
 14      1     2       0    7    0    8
         2     4       0    4    3    0
         3     5       5    0    0    5
 15      1     3       6    0    0    8
         2     8       0    5    0    8
         3     9       0    5    0    5
 16      1     1       7    0    3    0
         2     4       0    7    3    0
         3     5       4    0    1    0
 17      1     2       0    5    3    0
         2     6       6    0    0    8
         3     8       6    0    2    0
 18      1     4       2    0    0    8
         2     6       0    6    2    0
         3     7       0    2    1    0
 19      1     1       6    0    9    0
         2     2       5    0    9    0
         3    10       0    2    7    0
 20      1     2       0    9    0    7
         2     8       0    7    3    0
         3    10       3    0    3    0
 21      1     3       8    0    0    2
         2     9       6    0    7    0
         3    10       5    0    6    0
 22      1     0       0    0    0    0
************************************************************************
RESOURCEAVAILABILITIES:
  R 1  R 2  N 1  N 2
   21   29   69   53
************************************************************************
MAXIMAL LAGS:
from  to  type  delay
    1   22   ES      0
    1    2   ES      0
    2   22   ES      0
    1    3   ES      0
    3   22   ES      0
    1    4   ES      0
    4   22   ES      0
    1    5   ES      0
    5   22   ES      0
    1    6   ES      0
    6   22   ES      0
    1    7   ES      0
    7   22   ES      0
    1    8   ES      0
    8   22   ES      0
    1    9   ES      0
    9   22   ES      0
    1   10   ES      0
   10   22   ES      0
    1   11   ES      0
   11   22   ES      0
    1   12   ES      0
   12   22   ES      0
    1   13   ES      0
   13   22   ES      0
    1   14   ES      0
   14   22   ES      0
    1   15   ES      0
   15   22   ES      0
    1   16   ES      0
   16   22   ES      0
    1   17   ES      0
   17   22   ES      0
    1   18   ES      0
   18   22   ES      0
    1   19   ES      0
   19   22   ES      0
    1   20   ES      0
   20   22   ES      0
    1   21   ES      0
   21   22   ES      0
    1   22   ES      0
    2    6   SS      9
    2    6   SE     11
    2    6   ES      9
    2    6   EE     -4
    2   10   SS      6
    2   10   SE      0
    2   10   ES      8
    2   10   EE     -1
    2   11   SS     -9
    2   11   SE      9
    2   11   ES     -5
    2   11   EE      3
    3    7   SS    -12
    3    7   SE      7
    3    7   ES      5
    3    7   EE     -2
    3   14   SS      7
    3   14   SE     -5
    3   14   ES      8
    3   14   EE    -10
    4    5   SS      8
    4    5   SE      2
    4    5   ES     10
    4    5   EE     -3
    4    7   SS      8
    4    7   SE      1
    4    7   ES     -9
    4    7   EE     -8
    4   18   SS    -11
    4   18   SE    -11
    4   18   ES     -3
    4   18   EE      3
    5    8   SS     -9
    5    8   SE     -9
    5    8   ES     -5
    5    8   EE      5
    5   10   SS     -8
    5   10   SE      0
    5   10   ES      2
    5   10   EE     -1
    5   12   SS      9
    5   12   SE     11
    5   12   ES     10
    5   12   EE      5
    6    7   SS      1
    6    7   SE      6
    6    7   ES     11
    6    7   EE     11
    6   13   SS     -8
    6   13   SE      1
    6   13   ES      8
    6   13   EE     -9
    6   14   SS      3
    6   14   SE      7
    6   14   ES      1
    6   14   EE     -4
    7    9   SS    -11
    7    9   SE     10
    7    9   ES     -1
    7    9   EE     -6
    7   19   SS      2
    7   19   SE      2
    7   19   ES     -5
    7   19   EE     -1
    8    9   SS     -9
    8    9   SE      9
    8    9   ES     -1
    8    9   EE      5
    8   11   SS      8
    8   11   SE     -1
    8   11   ES    -11
    8   11   EE      0
    8   13   SS     -4
    8   13   SE     -6
    8   13   ES     -9
    8   13   EE      2
    9   15   SS    -10
    9   15   SE      9
    9   15   ES     -6
    9   15   EE      8
    9   16   SS      8
    9   16   SE      7
    9   16   ES    -12
    9   16   EE    -11
    9   17   SS     -2
    9   17   SE     -5
    9   17   ES     -8
    9   17   EE      6
   10   16   SS     -6
   10   16   SE    -10
   10   16   ES     12
   10   16   EE      5
   11   14   SS     -6
   11   14   SE      6
   11   14   ES     -6
   11   14   EE     -5
   11   16   SS     -2
   11   16   SE     12
   11   16   ES     -8
   11   16   EE      7
   11   21   SS    -12
   11   21   SE     -4
   11   21   ES     -8
   11   21   EE     -8
   12   19   SS      5
   12   19   SE     -4
   12   19   ES     -7
   12   19   EE     -9
   13   17   SS      9
   13   17   SE    -12
   13   17   ES     -8
   13   17   EE    -12
   13   19   SS     -1
   13   19   SE     -5
   13   19   ES      6
   13   19   EE     -2
   14   15   SS    -12
   14   15   SE     -7
   14   15   ES     -4
   14   15   EE    -11
   15   20   SS     -8
   15   20   SE     11
   15   20   ES      1
   15   20   EE      4
   16   20   SS     -9
   16   20   SE     11
   16   20   ES    -10
   16   20   EE      3
   17   21   SS      2
   17   21   SE     12
   17   21   ES     -1
   17   21   EE      4
   18   21   SS      6
   18   21   SE     -9
   18   21   ES      2
   18   21   EE      4
************************************************************************
